molecule {
  symmetry = C1;
  basis = sto-3g;
  df_basis = svp;
  schwarz_thresh = 1.0e-12;
  angstrom = false;
  cartesian = false;
  atom = ( C,    0.00000000000000,     0.00000000000000,     2.64112304663605);
  atom = ( C,    2.28770766388446,     0.00000000000000,     1.32067631141874);
  atom = ( C,    2.28770047235649,     0.00000000000000,    -1.32071294538560);
  atom = ( C,    0.00000000000000,     0.00000000000000,    -2.64114665444819);
  atom = ( C,   -2.28770047235649,     0.00000000000000,    -1.32071294538560);
  atom = ( C,   -2.28770766388446,     0.00000000000000,     1.32067631141874);
  atom = ( H,    4.07221260176630,     0.00000000000000,     2.35164689765998);
  atom = ( H,    4.07221517814719,     0.00000000000000,    -2.35163163881380);
  atom = ( H,    0.00000000000000,     0.00000000000000,    -4.70191324441092);
  atom = ( H,   -4.07221517814719,     0.00000000000000,    -2.35163163881380);
  atom = ( H,   -4.07221260176630,     0.00000000000000,     2.35164689765998);
  atom = ( H,    0.00000000000000,     0.00000000000000,     4.70197960246451);
}

df-hf {}

dimerize {
  angstrom = true;
  dy = 4.0;
  dimer_active = (17, 20, 21, 22, 23, 30);
  thresh_scf = 1.0e-12;
  localization = pm;
}

meh {
  space = 0, 0, 8;
  space = 0, 2, 8;
  space = +1, 1, 8;
  space = -1, 1, 8;
  thresh_fci = 1.0e-12;
}
