molecule {
  symmetry = C1;
  basis = svp;
  df_basis = svp-jkfit;
  schwarz_thresh = 1.0e-12;
  angstrom = false;
  atom = ( C,     -0.000000,     -0.000000,      2.000000);
  atom = ( H,      0.000000,      0.000000,      0.000000);
}

df-rohf-opt {
  nact = 1;
  thresh = 1.0e-10;
}
