molecule {
  symmetry = C1;
  basis = molden;
  df_basis = svp-jkfit;
  molden_file = test.molden;
  schwarz_thresh = 1.0e-12;
}
