molecule {
  symmetry = C1;
  basis = svp;
  df_basis = svp-jkfit;
  schwarz_thresh = 1.0e-12;
  stack = 100M;
  angstrom = false;
  atom = ( F,     -0.000000,     -0.000000,      1.720616);
  atom = ( H,      0.000000,      0.000000,      0.305956);
}

df-hf-opt {
  thresh = 1.0e-10;
}
