molecule {
  symmetry = C1;
  nspin = 0;
  basis = svp;
  df_basis = qzvpp-jkfit;
  schwarz_thresh = 1.0e-12;
  stack = 100M;
  angstrom = false;
  atom = ( Li,     -0.000000,     -0.000000,     10.000000);
  atom = ( F,      0.000000,      0.000000,      0.000000);
}

casscf {
  nocc_cas = 7; 
  nclosed = 5;
  thresh_fci = 1.0e-15;
  thresh = 1.0e-15;
}
