molecule {
  symmetry = C1;
  basis = svp;
  df_basis = svp-jkfit;
  schwarz_thresh = 1.0e-12;
  stack = 100M;
  angstrom = false;
  atom = ( O,     -0.000000,     -0.000000,      1.800000);
  atom = ( H,      0.000000,      0.000000,      0.000000);
}

df-uhf-opt {
  nact = 1;
  thresh = 1.0e-10;
}
