molecule {
  symmetry = C1;
  nspin = 0;
  basis = molden;
  df_basis = svp-jkfit;
  cartesian = true;
  molden_in = methane_cart2.molden;
  schwarz_thresh = 1.0e-12;
  stack = 100M;
  angstrom = false;
  atom = ( C,      0.000000,      0.000000,      2.641130);
  atom = ( C,      2.287710,      0.000000,      1.320680);
  atom = ( C,      2.287700,      0.000000,     -1.320720);
  atom = ( C,      0.000000,      0.000000,     -2.641150);
  atom = ( C,     -2.287700,      0.000000,     -1.320720);
  atom = ( C,     -2.287700,      0.000000,      1.320680);
  atom = ( H,      4.072220,      0.000000,      2.351650);
  atom = ( H,      4.072220,      0.000000,     -2.351640);
  atom = ( H,      0.000000,      0.000000,     -4.701920);
  atom = ( H,     -4.072200,      0.000000,     -2.351640);
  atom = ( H,     -4.072200,      0.000000,      2.351650);
  atom = ( H,      0.000000,      0.000000,      4.701990);
}

testing {
   symmetry = C1;
}
