molecule {
  symmetry = C1;
  nspin = 0;
  basis = svp;
  schwarz_thresh = 1.0e-12;
  stack = 100M;
  angstrom = false;
  atom = ( F,     -0.000000,     -0.000000,      2.720616);
  atom = ( H,      0.000000,      0.000000,      0.305956);
}

molden { 
   stack = 100M;
   thresh = 1.0e-8;
   molden = benzene.molden;
}
